32	0

0	1	2
8	1	3
10	2	4	5
1	1	6
7	1	6
9	2	7	8
2	1	9
9	1	10
4	1	10
9	1	11
7	1	12
8	1	13
3	1	14
7	2	15	16
4	1	17
2	1	17
7	2	18	19
5	1	20
4	1	20
2	2	21	22
8	2	23	25
10	2	23	25
1	1	24
6	1	26
8	1	26
3	2	27	28
7	1	30
2	1	29
9	1	30
9	1	31
4	1	32
0	0
